c description: Random 3-CNF over 19 variables and 81 clauses
c generator: CNFgen (0.9.2)
c copyright: (C) 2012-2022 Massimo Lauria <massimo.lauria@uniroma1.it>
c url: https://massimolauria.net/cnfgen
c command line: cnfgen --output CNF_4.28/19_bit_81_749.cnf randkcnf 3 19 81
c
p cnf 19 81
-3 11 14 0
5 -6 14 0
3 9 19 0
-9 14 -15 0
-4 7 -8 0
4 -10 -13 0
-6 10 18 0
-1 3 18 0
-1 3 -13 0
-6 10 -14 0
-3 6 11 0
9 11 -15 0
-5 12 -16 0
6 -12 -14 0
-3 -10 14 0
1 -5 -15 0
-1 4 9 0
10 12 -14 0
-8 -10 -11 0
-10 -13 -18 0
2 -9 11 0
-1 9 16 0
5 -13 -16 0
13 14 -15 0
3 -6 18 0
4 7 8 0
-5 -11 17 0
-15 -17 -19 0
2 13 -19 0
-11 14 -19 0
-1 3 -15 0
-11 13 16 0
7 12 19 0
-12 -17 -19 0
-13 14 17 0
-4 12 14 0
4 -8 14 0
8 -9 -15 0
3 4 14 0
6 -9 10 0
-10 -11 -16 0
-10 -12 -16 0
-8 -11 -13 0
-7 10 -16 0
-10 -12 19 0
-5 -6 8 0
10 16 19 0
-1 -6 12 0
-1 -16 18 0
10 -11 -17 0
4 -12 19 0
-1 3 -6 0
2 -13 15 0
5 6 11 0
-5 -7 13 0
-2 4 9 0
-5 -6 10 0
-8 10 -14 0
-5 8 18 0
-7 12 -13 0
-2 9 -16 0
15 -16 -18 0
5 13 -18 0
2 13 18 0
2 -4 14 0
-2 11 -15 0
13 -15 -19 0
-10 12 13 0
6 8 15 0
7 -9 11 0
-5 -11 12 0
5 -7 -12 0
-1 -14 -16 0
-4 -7 -13 0
-3 -5 16 0
1 14 17 0
12 15 -19 0
2 11 -16 0
-11 12 -16 0
-1 3 17 0
-1 11 14 0
